-191.0 10.0 4.0 6.0 0.0 9.0 5.0 3.0 8.0 7.0 6.0 0.0 8.0 10.0 7.0 1.0 0.0 4.0 10.0 5.0 3.0 1.0 9.0 2.0 9.0 0.0 4.0 3.0 4.0 4.0 6.0 7.0 4.0 1.0 8.0 0.0 2.0 0.0 2.0 7.0 7.0 5.0 0.0 
10.0 -216.0 5.0 7.0 3.0 9.0 7.0 8.0 7.0 9.0 4.0 5.0 4.0 1.0 5.0 6.0 3.0 6.0 5.0 6.0 8.0 7.0 2.0 3.0 2.0 5.0 9.0 10.0 5.0 1.0 10.0 2.0 5.0 8.0 5.0 2.0 10.0 1.0 6.0 5.0 0.0 0.0 0.0 
4.0 5.0 -186.0 4.0 5.0 1.0 2.0 0.0 0.0 3.0 9.0 3.0 0.0 10.0 2.0 0.0 2.0 7.0 4.0 0.0 10.0 2.0 7.0 1.0 6.0 3.0 6.0 10.0 6.0 4.0 1.0 6.0 1.0 4.0 6.0 10.0 4.0 7.0 7.0 10.0 5.0 3.0 6.0 
6.0 7.0 4.0 -222.0 1.0 2.0 3.0 4.0 10.0 2.0 7.0 2.0 3.0 9.0 9.0 2.0 0.0 10.0 7.0 3.0 3.0 10.0 10.0 9.0 2.0 0.0 8.0 8.0 10.0 4.0 5.0 9.0 2.0 0.0 0.0 8.0 2.0 10.0 2.0 8.0 4.0 8.0 9.0 
0.0 3.0 5.0 1.0 -177.0 6.0 8.0 7.0 6.0 0.0 9.0 6.0 0.0 7.0 5.0 1.0 5.0 0.0 4.0 6.0 4.0 3.0 1.0 1.0 5.0 2.0 5.0 9.0 4.0 0.0 6.0 1.0 8.0 4.0 8.0 6.0 4.0 4.0 7.0 9.0 4.0 1.0 2.0 
9.0 9.0 1.0 2.0 6.0 -198.0 8.0 0.0 0.0 3.0 7.0 2.0 3.0 5.0 8.0 2.0 7.0 2.0 10.0 3.0 8.0 8.0 9.0 2.0 7.0 4.0 8.0 9.0 1.0 1.0 2.0 0.0 9.0 5.0 5.0 4.0 10.0 4.0 0.0 4.0 2.0 0.0 9.0 
5.0 7.0 2.0 3.0 8.0 8.0 -252.0 6.0 3.0 8.0 8.0 9.0 4.0 10.0 3.0 6.0 8.0 7.0 4.0 3.0 7.0 10.0 6.0 0.0 1.0 6.0 9.0 8.0 3.0 3.0 3.0 8.0 9.0 6.0 5.0 7.0 3.0 9.0 6.0 10.0 9.0 6.0 6.0 
3.0 8.0 0.0 4.0 7.0 0.0 6.0 -188.0 3.0 0.0 2.0 4.0 1.0 9.0 9.0 1.0 8.0 1.0 10.0 8.0 9.0 0.0 2.0 4.0 1.0 7.0 2.0 0.0 0.0 7.0 0.0 5.0 10.0 10.0 0.0 9.0 0.0 8.0 0.0 9.0 4.0 9.0 8.0 
8.0 7.0 0.0 10.0 6.0 0.0 3.0 3.0 -212.0 4.0 2.0 9.0 4.0 0.0 1.0 10.0 0.0 10.0 7.0 8.0 9.0 10.0 8.0 1.0 2.0 4.0 6.0 4.0 8.0 9.0 0.0 3.0 3.0 10.0 5.0 1.0 10.0 7.0 5.0 8.0 0.0 6.0 1.0 
7.0 9.0 3.0 2.0 0.0 3.0 8.0 0.0 4.0 -211.0 10.0 4.0 9.0 3.0 7.0 7.0 7.0 10.0 3.0 10.0 2.0 4.0 0.0 0.0 0.0 3.0 10.0 0.0 9.0 2.0 1.0 10.0 5.0 5.0 6.0 7.0 1.0 2.0 8.0 5.0 6.0 9.0 10.0 
6.0 4.0 9.0 7.0 9.0 7.0 8.0 2.0 2.0 10.0 -236.0 5.0 0.0 7.0 2.0 8.0 4.0 1.0 8.0 6.0 3.0 6.0 2.0 0.0 6.0 5.0 5.0 9.0 0.0 6.0 8.0 1.0 9.0 2.0 7.0 2.0 10.0 10.0 10.0 10.0 0.0 10.0 10.0 
0.0 5.0 3.0 2.0 6.0 2.0 9.0 4.0 9.0 4.0 5.0 -197.0 8.0 6.0 5.0 10.0 6.0 10.0 4.0 5.0 4.0 1.0 9.0 1.0 2.0 2.0 9.0 2.0 0.0 10.0 6.0 1.0 4.0 2.0 3.0 9.0 9.0 3.0 7.0 2.0 1.0 5.0 2.0 
8.0 4.0 0.0 3.0 0.0 3.0 4.0 1.0 4.0 9.0 0.0 8.0 -202.0 3.0 8.0 10.0 2.0 6.0 10.0 8.0 3.0 7.0 8.0 5.0 8.0 7.0 0.0 9.0 5.0 9.0 5.0 9.0 0.0 0.0 0.0 5.0 0.0 10.0 8.0 6.0 2.0 4.0 1.0 
10.0 1.0 10.0 9.0 7.0 5.0 10.0 9.0 0.0 3.0 7.0 6.0 3.0 -225.0 7.0 7.0 8.0 7.0 3.0 7.0 1.0 3.0 6.0 1.0 10.0 4.0 4.0 0.0 6.0 6.0 1.0 10.0 0.0 6.0 10.0 7.0 6.0 5.0 6.0 1.0 7.0 4.0 2.0 
7.0 5.0 2.0 9.0 5.0 8.0 3.0 9.0 1.0 7.0 2.0 5.0 8.0 7.0 -223.0 7.0 10.0 8.0 10.0 9.0 9.0 7.0 7.0 2.0 6.0 1.0 4.0 3.0 1.0 0.0 4.0 5.0 1.0 10.0 7.0 1.0 1.0 8.0 1.0 9.0 6.0 7.0 1.0 
1.0 6.0 0.0 2.0 1.0 2.0 6.0 1.0 10.0 7.0 8.0 10.0 10.0 7.0 7.0 -195.0 7.0 2.0 10.0 9.0 0.0 1.0 1.0 5.0 4.0 0.0 10.0 5.0 2.0 8.0 0.0 1.0 9.0 4.0 0.0 4.0 7.0 2.0 3.0 2.0 10.0 3.0 8.0 
0.0 3.0 2.0 0.0 5.0 7.0 8.0 8.0 0.0 7.0 4.0 6.0 2.0 8.0 10.0 7.0 -205.0 0.0 3.0 10.0 2.0 2.0 7.0 7.0 6.0 4.0 5.0 10.0 6.0 5.0 10.0 7.0 6.0 1.0 2.0 4.0 4.0 3.0 5.0 6.0 7.0 4.0 2.0 
4.0 6.0 7.0 10.0 0.0 2.0 7.0 1.0 10.0 10.0 1.0 10.0 6.0 7.0 8.0 2.0 0.0 -214.0 0.0 4.0 10.0 0.0 7.0 10.0 3.0 6.0 5.0 3.0 9.0 5.0 3.0 1.0 5.0 1.0 7.0 4.0 9.0 9.0 6.0 10.0 2.0 2.0 2.0 
10.0 5.0 4.0 7.0 4.0 10.0 4.0 10.0 7.0 3.0 8.0 4.0 10.0 3.0 10.0 10.0 3.0 0.0 -263.0 0.0 5.0 6.0 3.0 9.0 10.0 6.0 8.0 10.0 7.0 5.0 4.0 10.0 9.0 3.0 8.0 5.0 6.0 7.0 3.0 10.0 10.0 5.0 2.0 
5.0 6.0 0.0 3.0 6.0 3.0 3.0 8.0 8.0 10.0 6.0 5.0 8.0 7.0 9.0 9.0 10.0 4.0 0.0 -225.0 10.0 4.0 9.0 1.0 0.0 5.0 7.0 0.0 1.0 2.0 8.0 5.0 9.0 10.0 4.0 0.0 2.0 7.0 3.0 2.0 8.0 9.0 9.0 
3.0 8.0 10.0 3.0 4.0 8.0 7.0 9.0 9.0 2.0 3.0 4.0 3.0 1.0 9.0 0.0 2.0 10.0 5.0 10.0 -219.0 9.0 9.0 1.0 8.0 6.0 9.0 5.0 3.0 10.0 2.0 7.0 3.0 4.0 0.0 6.0 0.0 0.0 8.0 3.0 7.0 7.0 2.0 
1.0 7.0 2.0 10.0 3.0 8.0 10.0 0.0 10.0 4.0 6.0 1.0 7.0 3.0 7.0 1.0 2.0 0.0 6.0 4.0 9.0 -206.0 3.0 6.0 6.0 5.0 6.0 0.0 5.0 3.0 2.0 7.0 7.0 2.0 1.0 10.0 9.0 7.0 6.0 8.0 1.0 4.0 7.0 
9.0 2.0 7.0 10.0 1.0 9.0 6.0 2.0 8.0 0.0 2.0 9.0 8.0 6.0 7.0 1.0 7.0 7.0 3.0 9.0 9.0 3.0 -240.0 10.0 9.0 7.0 9.0 5.0 5.0 6.0 4.0 10.0 2.0 2.0 10.0 2.0 2.0 4.0 4.0 1.0 9.0 5.0 9.0 
2.0 3.0 1.0 9.0 1.0 2.0 0.0 4.0 1.0 0.0 0.0 1.0 5.0 1.0 2.0 5.0 7.0 10.0 9.0 1.0 1.0 6.0 10.0 -201.0 1.0 4.0 2.0 9.0 8.0 9.0 10.0 5.0 7.0 7.0 9.0 3.0 6.0 8.0 6.0 9.0 10.0 2.0 5.0 
9.0 2.0 6.0 2.0 5.0 7.0 1.0 1.0 2.0 0.0 6.0 2.0 8.0 10.0 6.0 4.0 6.0 3.0 10.0 0.0 8.0 6.0 9.0 1.0 -192.0 6.0 6.0 4.0 8.0 1.0 0.0 0.0 4.0 5.0 10.0 3.0 8.0 0.0 0.0 8.0 5.0 1.0 9.0 
0.0 5.0 3.0 0.0 2.0 4.0 6.0 7.0 4.0 3.0 5.0 2.0 7.0 4.0 1.0 0.0 4.0 6.0 6.0 5.0 6.0 5.0 7.0 4.0 6.0 -177.0 0.0 5.0 2.0 2.0 9.0 1.0 6.0 3.0 6.0 9.0 4.0 9.0 5.0 2.0 3.0 1.0 8.0 
4.0 9.0 6.0 8.0 5.0 8.0 9.0 2.0 6.0 10.0 5.0 9.0 0.0 4.0 4.0 10.0 5.0 5.0 8.0 7.0 9.0 6.0 9.0 2.0 6.0 0.0 -225.0 6.0 7.0 3.0 2.0 3.0 9.0 9.0 3.0 7.0 0.0 0.0 0.0 2.0 5.0 3.0 10.0 
3.0 10.0 10.0 8.0 9.0 9.0 8.0 0.0 4.0 0.0 9.0 2.0 9.0 0.0 3.0 5.0 10.0 3.0 10.0 0.0 5.0 0.0 5.0 9.0 4.0 5.0 6.0 -243.0 7.0 3.0 8.0 1.0 4.0 6.0 3.0 7.0 9.0 9.0 10.0 5.0 10.0 10.0 5.0 
4.0 5.0 6.0 10.0 4.0 1.0 3.0 0.0 8.0 9.0 0.0 0.0 5.0 6.0 1.0 2.0 6.0 9.0 7.0 1.0 3.0 5.0 5.0 8.0 8.0 2.0 7.0 7.0 -202.0 4.0 7.0 7.0 3.0 2.0 4.0 9.0 4.0 5.0 6.0 3.0 5.0 6.0 5.0 
4.0 1.0 4.0 4.0 0.0 1.0 3.0 7.0 9.0 2.0 6.0 10.0 9.0 6.0 0.0 8.0 5.0 5.0 5.0 2.0 10.0 3.0 6.0 9.0 1.0 2.0 3.0 3.0 4.0 -200.0 8.0 9.0 3.0 2.0 2.0 6.0 8.0 10.0 1.0 1.0 8.0 9.0 1.0 
6.0 10.0 1.0 5.0 6.0 2.0 3.0 0.0 0.0 1.0 8.0 6.0 5.0 1.0 4.0 0.0 10.0 3.0 4.0 8.0 2.0 2.0 4.0 10.0 0.0 9.0 2.0 8.0 7.0 8.0 -204.0 4.0 4.0 3.0 6.0 6.0 10.0 2.0 5.0 8.0 5.0 7.0 9.0 
7.0 2.0 6.0 9.0 1.0 0.0 8.0 5.0 3.0 10.0 1.0 1.0 9.0 10.0 5.0 1.0 7.0 1.0 10.0 5.0 7.0 7.0 10.0 5.0 0.0 1.0 3.0 1.0 7.0 9.0 4.0 -215.0 9.0 4.0 8.0 3.0 0.0 4.0 7.0 9.0 4.0 7.0 5.0 
4.0 5.0 1.0 2.0 8.0 9.0 9.0 10.0 3.0 5.0 9.0 4.0 0.0 0.0 1.0 9.0 6.0 5.0 9.0 9.0 3.0 7.0 2.0 7.0 4.0 6.0 9.0 4.0 3.0 3.0 4.0 9.0 -230.0 8.0 5.0 5.0 5.0 6.0 4.0 7.0 10.0 9.0 2.0 
1.0 8.0 4.0 0.0 4.0 5.0 6.0 10.0 10.0 5.0 2.0 2.0 0.0 6.0 10.0 4.0 1.0 1.0 3.0 10.0 4.0 2.0 2.0 7.0 5.0 3.0 9.0 6.0 2.0 2.0 3.0 4.0 8.0 -194.0 2.0 6.0 5.0 2.0 5.0 3.0 8.0 6.0 8.0 
8.0 5.0 6.0 0.0 8.0 5.0 5.0 0.0 5.0 6.0 7.0 3.0 0.0 10.0 7.0 0.0 2.0 7.0 8.0 4.0 0.0 1.0 10.0 9.0 10.0 6.0 3.0 3.0 4.0 2.0 6.0 8.0 5.0 2.0 -200.0 1.0 9.0 3.0 4.0 2.0 9.0 7.0 0.0 
0.0 2.0 10.0 8.0 6.0 4.0 7.0 9.0 1.0 7.0 2.0 9.0 5.0 7.0 1.0 4.0 4.0 4.0 5.0 0.0 6.0 10.0 2.0 3.0 3.0 9.0 7.0 7.0 9.0 6.0 6.0 3.0 5.0 6.0 1.0 -197.0 3.0 4.0 6.0 0.0 0.0 3.0 3.0 
2.0 10.0 4.0 2.0 4.0 10.0 3.0 0.0 10.0 1.0 10.0 9.0 0.0 6.0 1.0 7.0 4.0 9.0 6.0 2.0 0.0 9.0 2.0 6.0 8.0 4.0 0.0 9.0 4.0 8.0 10.0 0.0 5.0 5.0 9.0 3.0 -215.0 1.0 5.0 9.0 7.0 8.0 3.0 
0.0 1.0 7.0 10.0 4.0 4.0 9.0 8.0 7.0 2.0 10.0 3.0 10.0 5.0 8.0 2.0 3.0 9.0 7.0 7.0 0.0 7.0 4.0 8.0 0.0 9.0 0.0 9.0 5.0 10.0 2.0 4.0 6.0 2.0 3.0 4.0 1.0 -209.0 1.0 7.0 2.0 4.0 5.0 
2.0 6.0 7.0 2.0 7.0 0.0 6.0 0.0 5.0 8.0 10.0 7.0 8.0 6.0 1.0 3.0 5.0 6.0 3.0 3.0 8.0 6.0 4.0 6.0 0.0 5.0 0.0 10.0 6.0 1.0 5.0 7.0 4.0 5.0 4.0 6.0 5.0 1.0 -197.0 4.0 9.0 6.0 0.0 
7.0 5.0 10.0 8.0 9.0 4.0 10.0 9.0 8.0 5.0 10.0 2.0 6.0 1.0 9.0 2.0 6.0 10.0 10.0 2.0 3.0 8.0 1.0 9.0 8.0 2.0 2.0 5.0 3.0 1.0 8.0 9.0 7.0 3.0 2.0 0.0 9.0 7.0 4.0 -241.0 8.0 7.0 2.0 
7.0 0.0 5.0 4.0 4.0 2.0 9.0 4.0 0.0 6.0 0.0 1.0 2.0 7.0 6.0 10.0 7.0 2.0 10.0 8.0 7.0 1.0 9.0 10.0 5.0 3.0 5.0 10.0 5.0 8.0 5.0 4.0 10.0 8.0 9.0 0.0 7.0 2.0 9.0 8.0 -227.0 7.0 1.0 
5.0 0.0 3.0 8.0 1.0 0.0 6.0 9.0 6.0 9.0 10.0 5.0 4.0 4.0 7.0 3.0 4.0 2.0 5.0 9.0 7.0 4.0 5.0 2.0 1.0 1.0 3.0 10.0 6.0 9.0 7.0 7.0 9.0 6.0 7.0 3.0 8.0 4.0 6.0 7.0 7.0 -229.0 10.0 
0.0 0.0 6.0 9.0 2.0 9.0 6.0 8.0 1.0 10.0 10.0 2.0 1.0 2.0 1.0 8.0 2.0 2.0 2.0 9.0 2.0 7.0 9.0 5.0 9.0 8.0 10.0 5.0 5.0 1.0 9.0 5.0 2.0 8.0 0.0 3.0 3.0 5.0 0.0 2.0 1.0 10.0 -199.0 

